p cnf 386 460
17 18 20 21 22 0
17 18 20 21 -22 0
17 18 20 -21 23 0
17 18 20 -21 -23 0
-17 5 -3 24 25 0
-17 5 -3 24 -25 0
-17 5 -3 -24 26 0
-17 5 -3 -24 -26 0
-10 -8 -3 27 28 0
-10 -8 -3 27 -28 0
-10 -8 -3 -27 29 0
-10 -8 -3 -27 -29 0
17 -15 -20 30 31 0
17 -15 -20 30 -31 0
17 -15 -20 -30 32 0
17 -15 -20 -30 -32 0
-1 -20 19 33 34 0
-1 -20 19 33 -34 0
-1 -20 19 -33 35 0
-1 -20 19 -33 -35 0
-12 17 5 36 37 0
-12 17 5 36 -37 0
-12 17 5 -36 38 0
-12 17 5 -36 -38 0
1 -17 15 39 40 0
1 -17 15 39 -40 0
1 -17 15 -39 41 0
1 -17 15 -39 -41 0
-17 3 10 42 43 0
-17 3 10 42 -43 0
-17 3 10 -42 44 0
-17 3 10 -42 -44 0
-12 17 -3 45 46 0
-12 17 -3 45 -46 0
-12 17 -3 -45 47 0
-12 17 -3 -45 -47 0
11 -2 -16 48 49 0
11 -2 -16 48 -49 0
11 -2 -16 -48 50 0
11 -2 -16 -48 -50 0
17 -9 -11 51 52 0
17 -9 -11 51 -52 0
17 -9 -11 -51 53 0
17 -9 -11 -51 -53 0
11 1 8 54 55 0
11 1 8 54 -55 0
11 1 8 -54 56 0
11 1 8 -54 -56 0
-7 -20 4 57 58 0
-7 -20 4 57 -58 0
-7 -20 4 -57 59 0
-7 -20 4 -57 -59 0
5 11 2 60 61 0
5 11 2 60 -61 0
5 11 2 -60 62 0
5 11 2 -60 -62 0
-3 12 5 63 64 0
-3 12 5 63 -64 0
-3 12 5 -63 65 0
-3 12 5 -63 -65 0
12 -17 -11 66 67 0
12 -17 -11 66 -67 0
12 -17 -11 -66 68 0
12 -17 -11 -66 -68 0
-13 -9 -11 69 70 0
-13 -9 -11 69 -70 0
-13 -9 -11 -69 71 0
-13 -9 -11 -69 -71 0
-20 -15 4 72 73 0
-20 -15 4 72 -73 0
-20 -15 4 -72 74 0
-20 -15 4 -72 -74 0
1 3 -9 75 76 0
1 3 -9 75 -76 0
1 3 -9 -75 77 0
1 3 -9 -75 -77 0
11 -17 -16 78 79 0
11 -17 -16 78 -79 0
11 -17 -16 -78 80 0
11 -17 -16 -78 -80 0
1 -14 -8 81 82 0
1 -14 -8 81 -82 0
1 -14 -8 -81 83 0
1 -14 -8 -81 -83 0
-15 -20 10 84 85 0
-15 -20 10 84 -85 0
-15 -20 10 -84 86 0
-15 -20 10 -84 -86 0
-14 13 -18 87 88 0
-14 13 -18 87 -88 0
-14 13 -18 -87 89 0
-14 13 -18 -87 -89 0
-4 -10 -14 90 91 0
-4 -10 -14 90 -91 0
-4 -10 -14 -90 92 0
-4 -10 -14 -90 -92 0
-3 -8 -14 93 94 0
-3 -8 -14 93 -94 0
-3 -8 -14 -93 95 0
-3 -8 -14 -93 -95 0
15 -16 -5 96 97 0
15 -16 -5 96 -97 0
15 -16 -5 -96 98 0
15 -16 -5 -96 -98 0
1 13 16 99 100 0
1 13 16 99 -100 0
1 13 16 -99 101 0
1 13 16 -99 -101 0
-13 -20 -2 102 103 0
-13 -20 -2 102 -103 0
-13 -20 -2 -102 104 0
-13 -20 -2 -102 -104 0
-1 -20 -15 105 106 0
-1 -20 -15 105 -106 0
-1 -20 -15 -105 107 0
-1 -20 -15 -105 -107 0
-15 5 -6 108 109 0
-15 5 -6 108 -109 0
-15 5 -6 -108 110 0
-15 5 -6 -108 -110 0
8 -17 -1 111 112 0
8 -17 -1 111 -112 0
8 -17 -1 -111 113 0
8 -17 -1 -111 -113 0
-10 -7 13 114 115 0
-10 -7 13 114 -115 0
-10 -7 13 -114 116 0
-10 -7 13 -114 -116 0
13 12 -3 117 118 0
13 12 -3 117 -118 0
13 12 -3 -117 119 0
13 12 -3 -117 -119 0
-4 -7 -14 120 121 0
-4 -7 -14 120 -121 0
-4 -7 -14 -120 122 0
-4 -7 -14 -120 -122 0
-11 13 -16 123 124 0
-11 13 -16 123 -124 0
-11 13 -16 -123 125 0
-11 13 -16 -123 -125 0
13 -3 -7 126 127 0
13 -3 -7 126 -127 0
13 -3 -7 -126 128 0
13 -3 -7 -126 -128 0
3 12 -6 129 130 0
3 12 -6 129 -130 0
3 12 -6 -129 131 0
3 12 -6 -129 -131 0
7 -4 -1 132 133 0
7 -4 -1 132 -133 0
7 -4 -1 -132 134 0
7 -4 -1 -132 -134 0
-8 9 5 135 136 0
-8 9 5 135 -136 0
-8 9 5 -135 137 0
-8 9 5 -135 -137 0
14 -6 17 138 139 0
14 -6 17 138 -139 0
14 -6 17 -138 140 0
14 -6 17 -138 -140 0
19 -1 16 141 142 0
19 -1 16 141 -142 0
19 -1 16 -141 143 0
19 -1 16 -141 -143 0
-11 4 -14 144 145 0
-11 4 -14 144 -145 0
-11 4 -14 -144 146 0
-11 4 -14 -144 -146 0
1 14 15 147 148 0
1 14 15 147 -148 0
1 14 15 -147 149 0
1 14 15 -147 -149 0
-15 11 -13 150 151 0
-15 11 -13 150 -151 0
-15 11 -13 -150 152 0
-15 11 -13 -150 -152 0
20 -3 16 153 154 0
20 -3 16 153 -154 0
20 -3 16 -153 155 0
20 -3 16 -153 -155 0
-7 -19 20 156 157 0
-7 -19 20 156 -157 0
-7 -19 20 -156 158 0
-7 -19 20 -156 -158 0
7 15 -2 159 160 0
7 15 -2 159 -160 0
7 15 -2 -159 161 0
7 15 -2 -159 -161 0
2 -15 -7 162 163 0
2 -15 -7 162 -163 0
2 -15 -7 -162 164 0
2 -15 -7 -162 -164 0
-18 -9 -4 165 166 0
-18 -9 -4 165 -166 0
-18 -9 -4 -165 167 0
-18 -9 -4 -165 -167 0
-16 19 -17 168 169 0
-16 19 -17 168 -169 0
-16 19 -17 -168 170 0
-16 19 -17 -168 -170 0
-16 14 13 171 172 0
-16 14 13 171 -172 0
-16 14 13 -171 173 0
-16 14 13 -171 -173 0
3 -15 -18 174 175 0
3 -15 -18 174 -175 0
3 -15 -18 -174 176 0
3 -15 -18 -174 -176 0
17 -18 -14 177 178 0
17 -18 -14 177 -178 0
17 -18 -14 -177 179 0
17 -18 -14 -177 -179 0
-15 -17 -19 180 181 0
-15 -17 -19 180 -181 0
-15 -17 -19 -180 182 0
-15 -17 -19 -180 -182 0
-17 -9 -14 183 184 0
-17 -9 -14 183 -184 0
-17 -9 -14 -183 185 0
-17 -9 -14 -183 -185 0
-8 15 14 186 187 0
-8 15 14 186 -187 0
-8 15 14 -186 188 0
-8 15 14 -186 -188 0
-3 -12 -17 189 190 0
-3 -12 -17 189 -190 0
-3 -12 -17 -189 191 0
-3 -12 -17 -189 -191 0
-19 -13 10 192 193 0
-19 -13 10 192 -193 0
-19 -13 10 -192 194 0
-19 -13 10 -192 -194 0
3 11 -6 195 196 0
3 11 -6 195 -196 0
3 11 -6 -195 197 0
3 11 -6 -195 -197 0
-17 -7 8 198 199 0
-17 -7 8 198 -199 0
-17 -7 8 -198 200 0
-17 -7 8 -198 -200 0
10 7 1 201 202 0
10 7 1 201 -202 0
10 7 1 -201 203 0
10 7 1 -201 -203 0
5 8 -2 204 205 0
5 8 -2 204 -205 0
5 8 -2 -204 206 0
5 8 -2 -204 -206 0
14 -7 9 207 208 0
14 -7 9 207 -208 0
14 -7 9 -207 209 0
14 -7 9 -207 -209 0
-13 1 17 210 211 0
-13 1 17 210 -211 0
-13 1 17 -210 212 0
-13 1 17 -210 -212 0
18 19 -12 213 214 0
18 19 -12 213 -214 0
18 19 -12 -213 215 0
18 19 -12 -213 -215 0
-12 19 17 216 217 0
-12 19 17 216 -217 0
-12 19 17 -216 218 0
-12 19 17 -216 -218 0
3 7 -11 219 220 0
3 7 -11 219 -220 0
3 7 -11 -219 221 0
3 7 -11 -219 -221 0
20 3 5 222 223 0
20 3 5 222 -223 0
20 3 5 -222 224 0
20 3 5 -222 -224 0
14 -19 4 225 226 0
14 -19 4 225 -226 0
14 -19 4 -225 227 0
14 -19 4 -225 -227 0
16 -15 -5 228 229 0
16 -15 -5 228 -229 0
16 -15 -5 -228 230 0
16 -15 -5 -228 -230 0
19 -12 -16 231 232 0
19 -12 -16 231 -232 0
19 -12 -16 -231 233 0
19 -12 -16 -231 -233 0
6 20 8 234 235 0
6 20 8 234 -235 0
6 20 8 -234 236 0
6 20 8 -234 -236 0
-9 -10 -11 237 238 0
-9 -10 -11 237 -238 0
-9 -10 -11 -237 239 0
-9 -10 -11 -237 -239 0
11 -15 17 240 241 0
11 -15 17 240 -241 0
11 -15 17 -240 242 0
11 -15 17 -240 -242 0
16 7 -6 243 244 0
16 7 -6 243 -244 0
16 7 -6 -243 245 0
16 7 -6 -243 -245 0
-2 17 11 246 247 0
-2 17 11 246 -247 0
-2 17 11 -246 248 0
-2 17 11 -246 -248 0
15 -6 -3 249 250 0
15 -6 -3 249 -250 0
15 -6 -3 -249 251 0
15 -6 -3 -249 -251 0
-9 -3 -1 252 253 0
-9 -3 -1 252 -253 0
-9 -3 -1 -252 254 0
-9 -3 -1 -252 -254 0
-12 11 9 255 256 0
-12 11 9 255 -256 0
-12 11 9 -255 257 0
-12 11 9 -255 -257 0
7 -8 -16 258 259 0
7 -8 -16 258 -259 0
7 -8 -16 -258 260 0
7 -8 -16 -258 -260 0
12 -11 5 261 262 0
12 -11 5 261 -262 0
12 -11 5 -261 263 0
12 -11 5 -261 -263 0
3 -17 11 264 265 0
3 -17 11 264 -265 0
3 -17 11 -264 266 0
3 -17 11 -264 -266 0
-13 -14 -1 267 268 0
-13 -14 -1 267 -268 0
-13 -14 -1 -267 269 0
-13 -14 -1 -267 -269 0
-3 -5 8 270 271 0
-3 -5 8 270 -271 0
-3 -5 8 -270 272 0
-3 -5 8 -270 -272 0
-1 -2 17 273 274 0
-1 -2 17 273 -274 0
-1 -2 17 -273 275 0
-1 -2 17 -273 -275 0
-12 -3 -1 276 277 0
-12 -3 -1 276 -277 0
-12 -3 -1 -276 278 0
-12 -3 -1 -276 -278 0
-4 -13 -8 279 280 0
-4 -13 -8 279 -280 0
-4 -13 -8 -279 281 0
-4 -13 -8 -279 -281 0
-15 10 13 282 283 0
-15 10 13 282 -283 0
-15 10 13 -282 284 0
-15 10 13 -282 -284 0
-13 -5 11 285 286 0
-13 -5 11 285 -286 0
-13 -5 11 -285 287 0
-13 -5 11 -285 -287 0
8 -16 -7 288 289 0
8 -16 -7 288 -289 0
8 -16 -7 -288 290 0
8 -16 -7 -288 -290 0
-14 -4 -1 291 292 0
-14 -4 -1 291 -292 0
-14 -4 -1 -291 293 0
-14 -4 -1 -291 -293 0
294 295 297 301 309 0
294 295 297 301 -309 0
294 295 297 -301 310 0
294 295 297 -301 -310 0
294 295 -297 302 311 0
294 295 -297 302 -311 0
294 295 -297 -302 312 0
294 295 -297 -302 -312 0
294 -295 298 303 313 0
294 -295 298 303 -313 0
294 -295 298 -303 314 0
294 -295 298 -303 -314 0
294 -295 -298 304 315 0
294 -295 -298 304 -315 0
294 -295 -298 -304 316 0
294 -295 -298 -304 -316 0
-294 296 299 305 317 0
-294 296 299 305 -317 0
-294 296 299 -305 318 0
-294 296 299 -305 -318 0
-294 296 -299 306 319 0
-294 296 -299 306 -319 0
-294 296 -299 -306 320 0
-294 296 -299 -306 -320 0
-294 -296 300 307 321 0
-294 -296 300 307 -321 0
-294 -296 300 -307 322 0
-294 -296 300 -307 -322 0
-294 -296 -300 308 323 0
-294 -296 -300 308 -323 0
-294 -296 -300 -308 324 0
-294 -296 -300 -308 -324 0
325 326 328 332 340 0
325 326 328 332 -340 0
325 326 328 -332 341 0
325 326 328 -332 -341 0
325 326 -328 333 342 0
325 326 -328 333 -342 0
325 326 -328 -333 343 0
325 326 -328 -333 -343 0
325 -326 329 334 344 0
325 -326 329 334 -344 0
325 -326 329 -334 345 0
325 -326 329 -334 -345 0
325 -326 -329 335 346 0
325 -326 -329 335 -346 0
325 -326 -329 -335 347 0
325 -326 -329 -335 -347 0
-325 327 330 336 348 0
-325 327 330 336 -348 0
-325 327 330 -336 349 0
-325 327 330 -336 -349 0
-325 327 -330 337 350 0
-325 327 -330 337 -350 0
-325 327 -330 -337 351 0
-325 327 -330 -337 -351 0
-325 -327 331 338 352 0
-325 -327 331 338 -352 0
-325 -327 331 -338 353 0
-325 -327 331 -338 -353 0
-325 -327 -331 339 354 0
-325 -327 -331 339 -354 0
-325 -327 -331 -339 355 0
-325 -327 -331 -339 -355 0
356 357 359 363 371 0
356 357 359 363 -371 0
356 357 359 -363 372 0
356 357 359 -363 -372 0
356 357 -359 364 373 0
356 357 -359 364 -373 0
356 357 -359 -364 374 0
356 357 -359 -364 -374 0
356 -357 360 365 375 0
356 -357 360 365 -375 0
356 -357 360 -365 376 0
356 -357 360 -365 -376 0
356 -357 -360 366 377 0
356 -357 -360 366 -377 0
356 -357 -360 -366 378 0
356 -357 -360 -366 -378 0
-356 358 361 367 379 0
-356 358 361 367 -379 0
-356 358 361 -367 380 0
-356 358 361 -367 -380 0
-356 358 -361 368 381 0
-356 358 -361 368 -381 0
-356 358 -361 -368 382 0
-356 358 -361 -368 -382 0
-356 -358 362 369 383 0
-356 -358 362 369 -383 0
-356 -358 362 -369 384 0
-356 -358 362 -369 -384 0
-356 -358 -362 370 385 0
-356 -358 -362 370 -385 0
-356 -358 -362 -370 386 0
-356 -358 -362 -370 -386 0

